% File represents an instance of a Composite Structure problem to be solved by a CP framework
% Created on 2025-03-26 10:41:19.497
T = 58;
n = 9;
m = 12;
edges = [(1, 2),
(5, 4),
(8, 7),
(3, 2),
(6, 5),
(8, 9),
(1, 4),
(7, 4),
(5, 2),
(8, 5),
(6, 3),
(6, 9)];
counts = [|14, 4, 14, 24,
|12, 4, 12, 24,
|12, 6, 12, 24,
|14, 2, 14, 22,
|14, 4, 14, 24,
|14, 6, 14, 24,
|14, 4, 14, 24,
|14, 6, 14, 24,
|14, 4, 14, 24|];
